2220, 0, 0, 86, 2
2221, 0, 1, 74, 1
2222, 0, 2, 82, 3
2223, 0, 3, 69, 0
2224, 1, 0, 99, 1
2225, 1, 1, 85, 2
2226, 1, 2, 90, 0
2227, 1, 3, 64, 3
2228, 2, 0, 63, 1
2229, 2, 1, 47, 2
2230, 2, 2, 67, 0
2231, 2, 3, 76, 3
2232, 3, 0, 64, 1
2233, 3, 1, 43, 3
2234, 3, 2, 52, 2
2235, 3, 3, 68, 0
